50
150
100
100
100
100
98
96
95
93
90
89
86
86
85
85
84
81
79
78
74
70
69
68
66
62
62
61
58
56
55
54
53
51
48
44
42
40
36
35
33
32
31
24
23
23
18
13
12
4
4
2
